presolving:
   (0.1s) running MILP presolver
   (0.1s) MILP presolver (2 rounds): 0 aggregations, 1733 fixings, 0 bound changes
(round 1, medium)     1733 del vars, 0 del conss, 0 add conss, 0 chg bounds, 0 chg sides, 0 chg coeffs, 0 upgd conss, 0 impls, 10200 clqs
(round 2, exhaustive) 1733 del vars, 0 del conss, 0 add conss, 0 chg bounds, 0 chg sides, 0 chg coeffs, 10200 upgd conss, 0 impls, 10200 clqs
(round 3, medium)     1833 del vars, 0 del conss, 0 add conss, 0 chg bounds, 0 chg sides, 100 chg coeffs, 10200 upgd conss, 0 impls, 10200 clqs
(round 4, fast)       2952 del vars, 97 del conss, 0 add conss, 0 chg bounds, 0 chg sides, 100 chg coeffs, 10200 upgd conss, 0 impls, 10103 clqs
   (0.3s) probing: 51/10101 (0.5%) - 0 fixings, 0 aggregations, 0 implications, 0 bound changes
   (0.3s) probing aborted: 50/50 successive totally useless probings
   (0.4s) symmetry computation started: requiring (bin +, int -, cont +), (fixed: bin -, int +, cont -)
   (0.5s) no symmetry present
presolving (5 rounds: 5 fast, 4 medium, 2 exhaustive):
 2959 deleted vars, 100 deleted constraints, 0 added constraints, 0 tightened bounds, 0 added holes, 0 changed sides, 100 changed coefficients
 0 implications, 10100 cliques
presolved problem has 10101 variables (10101 bin, 0 int, 0 impl, 0 cont) and 10100 constraints
  10100 constraints of type <setppc>
Presolving Time: 0.44

 time | node  | left  |LP iter|LP it/n|mem/heur|mdpt |vars |cons |rows |cuts |sepa|confs|strbr|  dualbound   | primalbound  |  gap   | compl. 
p 0.5s|     1 |     0 |     0 |     - |  clique|   0 |  10k|  10k|  10k|   0 |  0 |   0 |   0 |-8.275461e+04 |-8.120761e+04 |   1.90%| unknown
p 0.6s|     1 |     0 |     0 |     - | vbounds|   0 |  10k|  10k|  10k|   0 |  0 |   0 |   0 |-8.275461e+04 |-8.193861e+04 |   1.00%| unknown
p 0.6s|     1 |     0 |     0 |     - | vbounds|   0 |  10k|  10k|  10k|   0 |  0 |   0 |   0 |-8.275461e+04 |-8.198161e+04 |   0.94%| unknown
  1.3s|     1 |     0 |  4939 |     - |   130M |   0 |  10k|  10k|  10k|   0 |  0 |   1 |   0 |-8.244068e+04 |-8.198161e+04 |   0.56%| unknown
r 1.3s|     1 |     0 |  4939 |     - |rounding|   0 |  10k|  10k|  10k|   0 |  0 |   1 |   0 |-8.244068e+04 |-8.201061e+04 |   0.52%| unknown
i 1.3s|     1 |     0 |  4939 |     - |  oneopt|   0 |  10k|  10k|  10k|   0 |  0 |   1 |   0 |-8.244068e+04 |-8.207361e+04 |   0.45%| unknown
  1.6s|     1 |     0 |  5005 |     - |   133M |   0 |  10k|  10k|  10k|   1 |  1 |   1 |   0 |-8.244065e+04 |-8.207361e+04 |   0.45%| unknown
  1.9s|     1 |     0 |  5006 |     - |   134M |   0 |  10k|  10k|  10k|   2 |  2 |   1 |   0 |-8.244065e+04 |-8.207361e+04 |   0.45%| unknown
  2.2s|     1 |     0 |  5132 |     - |   135M |   0 |  10k|  10k|  10k|   3 |  3 |   1 |   0 |-8.244045e+04 |-8.207361e+04 |   0.45%| unknown
d 4.6s|     1 |     0 | 15808 |     - |farkasdi|   0 |  10k|  10k|  10k|   0 |  5 |   1 |   0 |-8.244045e+04 |-8.238461e+04 |   0.07%| unknown
L 7.0s|     1 |     0 | 24865 |     - |    rens|   0 |  10k|  10k|  10k|   3 |  5 |   1 |   0 |-8.244045e+04 |-8.240861e+04 |   0.04%| unknown
  7.1s|     1 |     0 | 24865 |     - |   138M |   0 |  10k|  10k|  10k|   3 |  5 |   1 |   0 |-8.244045e+04 |-8.240861e+04 |   0.04%| unknown
  7.1s|     1 |     0 | 24865 |     - |   139M |   0 |  10k|  10k|8057 |   3 |  5 |   1 |   0 |-8.244045e+04 |-8.240861e+04 |   0.04%| unknown
  7.4s|     1 |     0 | 24988 |     - |   140M |   0 |  10k|8055 |8054 |   4 |  6 |   1 |   0 |-8.244022e+04 |-8.240861e+04 |   0.04%| unknown
  7.4s|     1 |     0 | 24988 |     - |   140M |   0 |  10k|8055 |8003 |   4 |  6 |   1 |   0 |-8.244022e+04 |-8.240861e+04 |   0.04%| unknown
 time | node  | left  |LP iter|LP it/n|mem/heur|mdpt |vars |cons |rows |cuts |sepa|confs|strbr|  dualbound   | primalbound  |  gap   | compl. 
  7.5s|     1 |     0 | 25398 |     - |   140M |   0 |  10k|8055 |8005 |   6 |  7 |   1 |   0 |-8.243969e+04 |-8.240861e+04 |   0.04%| unknown
  7.6s|     1 |     0 | 25398 |     - |   140M |   0 |  10k|8055 |7978 |   6 |  7 |   1 |   0 |-8.243969e+04 |-8.240861e+04 |   0.04%| unknown
(run 1, node 1) restarting after 2298 global fixings of integer variables

(restart) converted 6 cuts from the global cut pool into linear constraints

presolving:
(round 1, fast)       2298 del vars, 0 del conss, 0 add conss, 0 chg bounds, 0 chg sides, 20 chg coeffs, 0 upgd conss, 0 impls, 7814 clqs
   (7.6s) running MILP presolver
   (7.6s) MILP presolver found nothing
presolving (2 rounds: 2 fast, 1 medium, 1 exhaustive):
 2298 deleted vars, 0 deleted constraints, 0 added constraints, 0 tightened bounds, 0 added holes, 0 changed sides, 20 changed coefficients
 0 implications, 7814 cliques
presolved problem has 7803 variables (7803 bin, 0 int, 0 impl, 0 cont) and 7821 constraints
      6 constraints of type <knapsack>
   7814 constraints of type <setppc>
      1 constraints of type <logicor>
Presolving Time: 0.54
transformed 6/8 original solutions to the transformed problem space

 time | node  | left  |LP iter|LP it/n|mem/heur|mdpt |vars |cons |rows |cuts |sepa|confs|strbr|  dualbound   | primalbound  |  gap   | compl. 
  8.1s|     1 |     0 | 28998 |     - |   146M |   0 |7803 |7821 |7820 |   0 |  0 |   1 |   0 |-8.243969e+04 |-8.240861e+04 |   0.04%| unknown
  8.5s|     1 |     0 | 29079 |     - |   147M |   0 |7803 |7821 |7821 |   1 |  1 |   1 |   0 |-8.243964e+04 |-8.240861e+04 |   0.04%| unknown
  8.5s|     1 |     0 | 29079 |     - |   147M |   0 |7803 |7821 |7815 |   1 |  1 |   1 |   0 |-8.243964e+04 |-8.240861e+04 |   0.04%| unknown
  8.8s|     1 |     0 | 29188 |     - |   148M |   0 |7803 |7815 |7817 |   3 |  2 |   1 |   0 |-8.243956e+04 |-8.240861e+04 |   0.04%| unknown
  8.8s|     1 |     0 | 29188 |     - |   148M |   0 |7803 |7815 |7811 |   3 |  2 |   1 |   0 |-8.243956e+04 |-8.240861e+04 |   0.04%| unknown
  9.2s|     1 |     0 | 29513 |     - |   149M |   0 |7803 |7809 |7812 |   4 |  3 |   1 |   0 |-8.243928e+04 |-8.240861e+04 |   0.04%| unknown
  9.2s|     1 |     0 | 29513 |     - |   149M |   0 |7803 |7809 |7809 |   4 |  3 |   1 |   0 |-8.243928e+04 |-8.240861e+04 |   0.04%| unknown
  9.5s|     1 |     0 | 29812 |     - |   149M |   0 |7803 |7806 |7810 |   5 |  4 |   1 |   0 |-8.243894e+04 |-8.240861e+04 |   0.04%| unknown
  9.6s|     1 |     0 | 29812 |     - |   150M |   0 |7803 |7806 |7801 |   5 |  4 |   1 |   0 |-8.243894e+04 |-8.240861e+04 |   0.04%| unknown
 15.9s|     1 |     2 | 39684 |     - |   151M |   0 |7803 |7784 |7801 |   5 |  6 |  18 |  19 |-8.243689e+04 |-8.240861e+04 |   0.03%| unknown
*54.9s|    60 |     4 | 64037 | 899.3 |    LP  |  13 |7803 |7835 |7801 |  37 |  2 |  69 | 209 |-8.242853e+04 |-8.242361e+04 |   0.01%|  35.59%

SCIP Status        : problem is solved [optimal solution found]
Solving Time (sec) : 55.61
Solving Nodes      : 74 (total of 75 nodes in 2 runs)
Primal Bound       : -8.24236119630192e+04 (10 solutions)
Dual Bound         : -8.24236119630192e+04
Gap                : 0.00 %
Solve Status: optimal
Solve Time: 55.62 seconds
